100 500 200 500 10 100
86 349
56 258
43 435
97 361
38 215
18 352
10 313
100 309
17 284
46 312
48 323
95 222
22 434
75 344
94 480
12 478
66 430
67 372
14 385
19 391
66 419
34 280
15 268
69 273
46 245
31 371
70 435
87 375
49 333
29 424
20 477
74 338
96 385
91 468
57 241
95 367
80 350
96 441
70 233
23 219
32 245
15 396
24 231
54 245
32 237
59 375
58 268
18 369
26 472
16 421
62 445
11 422
100 433
43 462
24 273
91 443
92 320
55 496
50 357
85 364
34 459
15 357
83 200
52 428
93 261
34 435
38 334
13 498
86 417
60 481
93 339
99 206
46 209
69 458
68 492
76 459
13 360
91 374
20 239
10 230
70 348
75 453
77 219
90 247
77 308
24 272
53 400
70 303
29 229
56 423
100 382
42 368
28 445
69 249
82 291
95 483
57 494
13 369
100 284
48 295
